* #variable= 112 #constraint= 441
****************************************
* begin normalizer comments
* category= DEC-SMALLINT-LIN
* end normalizer comments
****************************************
+1 x1 +1 x3 +1 x2 +1 x4 >= 1 ;
-1 x1 -1 x3 +1 x2 +1 x4 >= -1 ;
+1 x1 +1 x3 -1 x2 -1 x4 >= -1 ;
-1 x1 -1 x3 -1 x2 -1 x4 >= -3 ;
+1 x1 +1 x7 +1 x2 +1 x8 >= 1 ;
-1 x1 -1 x7 +1 x2 +1 x8 >= -1 ;
+1 x1 +1 x7 -1 x2 -1 x8 >= -1 ;
-1 x1 -1 x7 -1 x2 -1 x8 >= -3 ;
+1 x1 +1 x25 +1 x2 +1 x26 >= 1 ;
-1 x1 -1 x25 +1 x2 +1 x26 >= -1 ;
+1 x1 +1 x25 -1 x2 -1 x26 >= -1 ;
-1 x1 -1 x25 -1 x2 -1 x26 >= -3 ;
+1 x1 +1 x29 +1 x2 +1 x30 >= 1 ;
-1 x1 -1 x29 +1 x2 +1 x30 >= -1 ;
+1 x1 +1 x29 -1 x2 -1 x30 >= -1 ;
-1 x1 -1 x29 -1 x2 -1 x30 >= -3 ;
+1 x3 +1 x5 +1 x4 +1 x6 >= 1 ;
-1 x3 -1 x5 +1 x4 +1 x6 >= -1 ;
+1 x3 +1 x5 -1 x4 -1 x6 >= -1 ;
-1 x3 -1 x5 -1 x4 -1 x6 >= -3 ;
+1 x3 +1 x23 +1 x4 +1 x24 >= 1 ;
-1 x3 -1 x23 +1 x4 +1 x24 >= -1 ;
+1 x3 +1 x23 -1 x4 -1 x24 >= -1 ;
-1 x3 -1 x23 -1 x4 -1 x24 >= -3 ;
+1 x3 +1 x27 +1 x4 +1 x28 >= 1 ;
-1 x3 -1 x27 +1 x4 +1 x28 >= -1 ;
+1 x3 +1 x27 -1 x4 -1 x28 >= -1 ;
-1 x3 -1 x27 -1 x4 -1 x28 >= -3 ;
+1 x5 +1 x11 +1 x6 +1 x12 >= 1 ;
-1 x5 -1 x11 +1 x6 +1 x12 >= -1 ;
+1 x5 +1 x11 -1 x6 -1 x12 >= -1 ;
-1 x5 -1 x11 -1 x6 -1 x12 >= -3 ;
+1 x5 +1 x25 +1 x6 +1 x26 >= 1 ;
-1 x5 -1 x25 +1 x6 +1 x26 >= -1 ;
+1 x5 +1 x25 -1 x6 -1 x26 >= -1 ;
-1 x5 -1 x25 -1 x6 -1 x26 >= -3 ;
+1 x5 +1 x33 +1 x6 +1 x34 >= 1 ;
-1 x5 -1 x33 +1 x6 +1 x34 >= -1 ;
+1 x5 +1 x33 -1 x6 -1 x34 >= -1 ;
-1 x5 -1 x33 -1 x6 -1 x34 >= -3 ;
+1 x7 +1 x9 +1 x8 +1 x10 >= 1 ;
-1 x7 -1 x9 +1 x8 +1 x10 >= -1 ;
+1 x7 +1 x9 -1 x8 -1 x10 >= -1 ;
-1 x7 -1 x9 -1 x8 -1 x10 >= -3 ;
+1 x7 +1 x23 +1 x8 +1 x24 >= 1 ;
-1 x7 -1 x23 +1 x8 +1 x24 >= -1 ;
+1 x7 +1 x23 -1 x8 -1 x24 >= -1 ;
-1 x7 -1 x23 -1 x8 -1 x24 >= -3 ;
+1 x7 +1 x31 +1 x8 +1 x32 >= 1 ;
-1 x7 -1 x31 +1 x8 +1 x32 >= -1 ;
+1 x7 +1 x31 -1 x8 -1 x32 >= -1 ;
-1 x7 -1 x31 -1 x8 -1 x32 >= -3 ;
+1 x9 +1 x15 +1 x10 +1 x16 >= 1 ;
-1 x9 -1 x15 +1 x10 +1 x16 >= -1 ;
+1 x9 +1 x15 -1 x10 -1 x16 >= -1 ;
-1 x9 -1 x15 -1 x10 -1 x16 >= -3 ;
+1 x9 +1 x29 +1 x10 +1 x30 >= 1 ;
-1 x9 -1 x29 +1 x10 +1 x30 >= -1 ;
+1 x9 +1 x29 -1 x10 -1 x30 >= -1 ;
-1 x9 -1 x29 -1 x10 -1 x30 >= -3 ;
+1 x9 +1 x37 +1 x10 +1 x38 >= 1 ;
-1 x9 -1 x37 +1 x10 +1 x38 >= -1 ;
+1 x9 +1 x37 -1 x10 -1 x38 >= -1 ;
-1 x9 -1 x37 -1 x10 -1 x38 >= -3 ;
+1 x11 +1 x13 +1 x12 +1 x14 >= 1 ;
-1 x11 -1 x13 +1 x12 +1 x14 >= -1 ;
+1 x11 +1 x13 -1 x12 -1 x14 >= -1 ;
-1 x11 -1 x13 -1 x12 -1 x14 >= -3 ;
+1 x11 +1 x27 +1 x12 +1 x28 >= 1 ;
-1 x11 -1 x27 +1 x12 +1 x28 >= -1 ;
+1 x11 +1 x27 -1 x12 -1 x28 >= -1 ;
-1 x11 -1 x27 -1 x12 -1 x28 >= -3 ;
+1 x11 +1 x35 +1 x12 +1 x36 >= 1 ;
-1 x11 -1 x35 +1 x12 +1 x36 >= -1 ;
+1 x11 +1 x35 -1 x12 -1 x36 >= -1 ;
-1 x11 -1 x35 -1 x12 -1 x36 >= -3 ;
+1 x13 +1 x19 +1 x14 +1 x20 >= 1 ;
-1 x13 -1 x19 +1 x14 +1 x20 >= -1 ;
+1 x13 +1 x19 -1 x14 -1 x20 >= -1 ;
-1 x13 -1 x19 -1 x14 -1 x20 >= -3 ;
+1 x13 +1 x33 +1 x14 +1 x34 >= 1 ;
-1 x13 -1 x33 +1 x14 +1 x34 >= -1 ;
+1 x13 +1 x33 -1 x14 -1 x34 >= -1 ;
-1 x13 -1 x33 -1 x14 -1 x34 >= -3 ;
+1 x13 +1 x41 +1 x14 +1 x42 >= 1 ;
-1 x13 -1 x41 +1 x14 +1 x42 >= -1 ;
+1 x13 +1 x41 -1 x14 -1 x42 >= -1 ;
-1 x13 -1 x41 -1 x14 -1 x42 >= -3 ;
+1 x15 +1 x17 +1 x16 +1 x18 >= 1 ;
-1 x15 -1 x17 +1 x16 +1 x18 >= -1 ;
+1 x15 +1 x17 -1 x16 -1 x18 >= -1 ;
-1 x15 -1 x17 -1 x16 -1 x18 >= -3 ;
+1 x15 +1 x31 +1 x16 +1 x32 >= 1 ;
-1 x15 -1 x31 +1 x16 +1 x32 >= -1 ;
+1 x15 +1 x31 -1 x16 -1 x32 >= -1 ;
-1 x15 -1 x31 -1 x16 -1 x32 >= -3 ;
+1 x15 +1 x39 +1 x16 +1 x40 >= 1 ;
-1 x15 -1 x39 +1 x16 +1 x40 >= -1 ;
+1 x15 +1 x39 -1 x16 -1 x40 >= -1 ;
-1 x15 -1 x39 -1 x16 -1 x40 >= -3 ;
+1 x17 +1 x21 +1 x18 +1 x22 >= 1 ;
-1 x17 -1 x21 +1 x18 +1 x22 >= -1 ;
+1 x17 +1 x21 -1 x18 -1 x22 >= -1 ;
-1 x17 -1 x21 -1 x18 -1 x22 >= -3 ;
+1 x17 +1 x37 +1 x18 +1 x38 >= 1 ;
-1 x17 -1 x37 +1 x18 +1 x38 >= -1 ;
+1 x17 +1 x37 -1 x18 -1 x38 >= -1 ;
-1 x17 -1 x37 -1 x18 -1 x38 >= -3 ;
+1 x17 +1 x43 +1 x18 +1 x44 >= 1 ;
-1 x17 -1 x43 +1 x18 +1 x44 >= -1 ;
+1 x17 +1 x43 -1 x18 -1 x44 >= -1 ;
-1 x17 -1 x43 -1 x18 -1 x44 >= -3 ;
+1 x19 +1 x21 +1 x20 +1 x22 >= 1 ;
-1 x19 -1 x21 +1 x20 +1 x22 >= -1 ;
+1 x19 +1 x21 -1 x20 -1 x22 >= -1 ;
-1 x19 -1 x21 -1 x20 -1 x22 >= -3 ;
+1 x19 +1 x35 +1 x20 +1 x36 >= 1 ;
-1 x19 -1 x35 +1 x20 +1 x36 >= -1 ;
+1 x19 +1 x35 -1 x20 -1 x36 >= -1 ;
-1 x19 -1 x35 -1 x20 -1 x36 >= -3 ;
+1 x19 +1 x43 +1 x20 +1 x44 >= 1 ;
-1 x19 -1 x43 +1 x20 +1 x44 >= -1 ;
+1 x19 +1 x43 -1 x20 -1 x44 >= -1 ;
-1 x19 -1 x43 -1 x20 -1 x44 >= -3 ;
+1 x21 +1 x39 +1 x22 +1 x40 >= 1 ;
-1 x21 -1 x39 +1 x22 +1 x40 >= -1 ;
+1 x21 +1 x39 -1 x22 -1 x40 >= -1 ;
-1 x21 -1 x39 -1 x22 -1 x40 >= -3 ;
+1 x21 +1 x41 +1 x22 +1 x42 >= 1 ;
-1 x21 -1 x41 +1 x22 +1 x42 >= -1 ;
+1 x21 +1 x41 -1 x22 -1 x42 >= -1 ;
-1 x21 -1 x41 -1 x22 -1 x42 >= -3 ;
+1 x23 +1 x47 +1 x24 +1 x48 >= 1 ;
-1 x23 -1 x47 +1 x24 +1 x48 >= -1 ;
+1 x23 +1 x47 -1 x24 -1 x48 >= -1 ;
-1 x23 -1 x47 -1 x24 -1 x48 >= -3 ;
+1 x23 +1 x51 +1 x24 +1 x52 >= 1 ;
-1 x23 -1 x51 +1 x24 +1 x52 >= -1 ;
+1 x23 +1 x51 -1 x24 -1 x52 >= -1 ;
-1 x23 -1 x51 -1 x24 -1 x52 >= -3 ;
+1 x25 +1 x45 +1 x26 +1 x46 >= 1 ;
-1 x25 -1 x45 +1 x26 +1 x46 >= -1 ;
+1 x25 +1 x45 -1 x26 -1 x46 >= -1 ;
-1 x25 -1 x45 -1 x26 -1 x46 >= -3 ;
+1 x25 +1 x49 +1 x26 +1 x50 >= 1 ;
-1 x25 -1 x49 +1 x26 +1 x50 >= -1 ;
+1 x25 +1 x49 -1 x26 -1 x50 >= -1 ;
-1 x25 -1 x49 -1 x26 -1 x50 >= -3 ;
+1 x27 +1 x47 +1 x28 +1 x48 >= 1 ;
-1 x27 -1 x47 +1 x28 +1 x48 >= -1 ;
+1 x27 +1 x47 -1 x28 -1 x48 >= -1 ;
-1 x27 -1 x47 -1 x28 -1 x48 >= -3 ;
+1 x27 +1 x55 +1 x28 +1 x56 >= 1 ;
-1 x27 -1 x55 +1 x28 +1 x56 >= -1 ;
+1 x27 +1 x55 -1 x28 -1 x56 >= -1 ;
-1 x27 -1 x55 -1 x28 -1 x56 >= -3 ;
+1 x29 +1 x45 +1 x30 +1 x46 >= 1 ;
-1 x29 -1 x45 +1 x30 +1 x46 >= -1 ;
+1 x29 +1 x45 -1 x30 -1 x46 >= -1 ;
-1 x29 -1 x45 -1 x30 -1 x46 >= -3 ;
+1 x29 +1 x53 +1 x30 +1 x54 >= 1 ;
-1 x29 -1 x53 +1 x30 +1 x54 >= -1 ;
+1 x29 +1 x53 -1 x30 -1 x54 >= -1 ;
-1 x29 -1 x53 -1 x30 -1 x54 >= -3 ;
+1 x31 +1 x51 +1 x32 +1 x52 >= 1 ;
-1 x31 -1 x51 +1 x32 +1 x52 >= -1 ;
+1 x31 +1 x51 -1 x32 -1 x52 >= -1 ;
-1 x31 -1 x51 -1 x32 -1 x52 >= -3 ;
+1 x31 +1 x59 +1 x32 +1 x60 >= 1 ;
-1 x31 -1 x59 +1 x32 +1 x60 >= -1 ;
+1 x31 +1 x59 -1 x32 -1 x60 >= -1 ;
-1 x31 -1 x59 -1 x32 -1 x60 >= -3 ;
+1 x33 +1 x49 +1 x34 +1 x50 >= 1 ;
-1 x33 -1 x49 +1 x34 +1 x50 >= -1 ;
+1 x33 +1 x49 -1 x34 -1 x50 >= -1 ;
-1 x33 -1 x49 -1 x34 -1 x50 >= -3 ;
+1 x33 +1 x57 +1 x34 +1 x58 >= 1 ;
-1 x33 -1 x57 +1 x34 +1 x58 >= -1 ;
+1 x33 +1 x57 -1 x34 -1 x58 >= -1 ;
-1 x33 -1 x57 -1 x34 -1 x58 >= -3 ;
+1 x35 +1 x55 +1 x36 +1 x56 >= 1 ;
-1 x35 -1 x55 +1 x36 +1 x56 >= -1 ;
+1 x35 +1 x55 -1 x36 -1 x56 >= -1 ;
-1 x35 -1 x55 -1 x36 -1 x56 >= -3 ;
+1 x35 +1 x63 +1 x36 +1 x64 >= 1 ;
-1 x35 -1 x63 +1 x36 +1 x64 >= -1 ;
+1 x35 +1 x63 -1 x36 -1 x64 >= -1 ;
-1 x35 -1 x63 -1 x36 -1 x64 >= -3 ;
+1 x37 +1 x53 +1 x38 +1 x54 >= 1 ;
-1 x37 -1 x53 +1 x38 +1 x54 >= -1 ;
+1 x37 +1 x53 -1 x38 -1 x54 >= -1 ;
-1 x37 -1 x53 -1 x38 -1 x54 >= -3 ;
+1 x37 +1 x61 +1 x38 +1 x62 >= 1 ;
-1 x37 -1 x61 +1 x38 +1 x62 >= -1 ;
+1 x37 +1 x61 -1 x38 -1 x62 >= -1 ;
-1 x37 -1 x61 -1 x38 -1 x62 >= -3 ;
+1 x39 +1 x59 +1 x40 +1 x60 >= 1 ;
-1 x39 -1 x59 +1 x40 +1 x60 >= -1 ;
+1 x39 +1 x59 -1 x40 -1 x60 >= -1 ;
-1 x39 -1 x59 -1 x40 -1 x60 >= -3 ;
+1 x39 +1 x65 +1 x40 +1 x66 >= 1 ;
-1 x39 -1 x65 +1 x40 +1 x66 >= -1 ;
+1 x39 +1 x65 -1 x40 -1 x66 >= -1 ;
-1 x39 -1 x65 -1 x40 -1 x66 >= -3 ;
+1 x41 +1 x57 +1 x42 +1 x58 >= 1 ;
-1 x41 -1 x57 +1 x42 +1 x58 >= -1 ;
+1 x41 +1 x57 -1 x42 -1 x58 >= -1 ;
-1 x41 -1 x57 -1 x42 -1 x58 >= -3 ;
+1 x41 +1 x65 +1 x42 +1 x66 >= 1 ;
-1 x41 -1 x65 +1 x42 +1 x66 >= -1 ;
+1 x41 +1 x65 -1 x42 -1 x66 >= -1 ;
-1 x41 -1 x65 -1 x42 -1 x66 >= -3 ;
+1 x43 +1 x61 +1 x44 +1 x62 >= 1 ;
-1 x43 -1 x61 +1 x44 +1 x62 >= -1 ;
+1 x43 +1 x61 -1 x44 -1 x62 >= -1 ;
-1 x43 -1 x61 -1 x44 -1 x62 >= -3 ;
+1 x43 +1 x63 +1 x44 +1 x64 >= 1 ;
-1 x43 -1 x63 +1 x44 +1 x64 >= -1 ;
+1 x43 +1 x63 -1 x44 -1 x64 >= -1 ;
-1 x43 -1 x63 -1 x44 -1 x64 >= -3 ;
+1 x45 +1 x69 +1 x46 +1 x70 >= 1 ;
-1 x45 -1 x69 +1 x46 +1 x70 >= -1 ;
+1 x45 +1 x69 -1 x46 -1 x70 >= -1 ;
-1 x45 -1 x69 -1 x46 -1 x70 >= -3 ;
+1 x45 +1 x73 +1 x46 +1 x74 >= 1 ;
-1 x45 -1 x73 +1 x46 +1 x74 >= -1 ;
+1 x45 +1 x73 -1 x46 -1 x74 >= -1 ;
-1 x45 -1 x73 -1 x46 -1 x74 >= -3 ;
+1 x47 +1 x67 +1 x48 +1 x68 >= 1 ;
-1 x47 -1 x67 +1 x48 +1 x68 >= -1 ;
+1 x47 +1 x67 -1 x48 -1 x68 >= -1 ;
-1 x47 -1 x67 -1 x48 -1 x68 >= -3 ;
+1 x47 +1 x71 +1 x48 +1 x72 >= 1 ;
-1 x47 -1 x71 +1 x48 +1 x72 >= -1 ;
+1 x47 +1 x71 -1 x48 -1 x72 >= -1 ;
-1 x47 -1 x71 -1 x48 -1 x72 >= -3 ;
+1 x49 +1 x69 +1 x50 +1 x70 >= 1 ;
-1 x49 -1 x69 +1 x50 +1 x70 >= -1 ;
+1 x49 +1 x69 -1 x50 -1 x70 >= -1 ;
-1 x49 -1 x69 -1 x50 -1 x70 >= -3 ;
+1 x49 +1 x77 +1 x50 +1 x78 >= 1 ;
-1 x49 -1 x77 +1 x50 +1 x78 >= -1 ;
+1 x49 +1 x77 -1 x50 -1 x78 >= -1 ;
-1 x49 -1 x77 -1 x50 -1 x78 >= -3 ;
+1 x51 +1 x67 +1 x52 +1 x68 >= 1 ;
-1 x51 -1 x67 +1 x52 +1 x68 >= -1 ;
+1 x51 +1 x67 -1 x52 -1 x68 >= -1 ;
-1 x51 -1 x67 -1 x52 -1 x68 >= -3 ;
+1 x51 +1 x75 +1 x52 +1 x76 >= 1 ;
-1 x51 -1 x75 +1 x52 +1 x76 >= -1 ;
+1 x51 +1 x75 -1 x52 -1 x76 >= -1 ;
-1 x51 -1 x75 -1 x52 -1 x76 >= -3 ;
+1 x53 +1 x73 +1 x54 +1 x74 >= 1 ;
-1 x53 -1 x73 +1 x54 +1 x74 >= -1 ;
+1 x53 +1 x73 -1 x54 -1 x74 >= -1 ;
-1 x53 -1 x73 -1 x54 -1 x74 >= -3 ;
+1 x53 +1 x81 +1 x54 +1 x82 >= 1 ;
-1 x53 -1 x81 +1 x54 +1 x82 >= -1 ;
+1 x53 +1 x81 -1 x54 -1 x82 >= -1 ;
-1 x53 -1 x81 -1 x54 -1 x82 >= -3 ;
+1 x55 +1 x71 +1 x56 +1 x72 >= 1 ;
-1 x55 -1 x71 +1 x56 +1 x72 >= -1 ;
+1 x55 +1 x71 -1 x56 -1 x72 >= -1 ;
-1 x55 -1 x71 -1 x56 -1 x72 >= -3 ;
+1 x55 +1 x79 +1 x56 +1 x80 >= 1 ;
-1 x55 -1 x79 +1 x56 +1 x80 >= -1 ;
+1 x55 +1 x79 -1 x56 -1 x80 >= -1 ;
-1 x55 -1 x79 -1 x56 -1 x80 >= -3 ;
+1 x57 +1 x77 +1 x58 +1 x78 >= 1 ;
-1 x57 -1 x77 +1 x58 +1 x78 >= -1 ;
+1 x57 +1 x77 -1 x58 -1 x78 >= -1 ;
-1 x57 -1 x77 -1 x58 -1 x78 >= -3 ;
+1 x57 +1 x85 +1 x58 +1 x86 >= 1 ;
-1 x57 -1 x85 +1 x58 +1 x86 >= -1 ;
+1 x57 +1 x85 -1 x58 -1 x86 >= -1 ;
-1 x57 -1 x85 -1 x58 -1 x86 >= -3 ;
+1 x59 +1 x75 +1 x60 +1 x76 >= 1 ;
-1 x59 -1 x75 +1 x60 +1 x76 >= -1 ;
+1 x59 +1 x75 -1 x60 -1 x76 >= -1 ;
-1 x59 -1 x75 -1 x60 -1 x76 >= -3 ;
+1 x59 +1 x83 +1 x60 +1 x84 >= 1 ;
-1 x59 -1 x83 +1 x60 +1 x84 >= -1 ;
+1 x59 +1 x83 -1 x60 -1 x84 >= -1 ;
-1 x59 -1 x83 -1 x60 -1 x84 >= -3 ;
+1 x61 +1 x81 +1 x62 +1 x82 >= 1 ;
-1 x61 -1 x81 +1 x62 +1 x82 >= -1 ;
+1 x61 +1 x81 -1 x62 -1 x82 >= -1 ;
-1 x61 -1 x81 -1 x62 -1 x82 >= -3 ;
+1 x61 +1 x87 +1 x62 +1 x88 >= 1 ;
-1 x61 -1 x87 +1 x62 +1 x88 >= -1 ;
+1 x61 +1 x87 -1 x62 -1 x88 >= -1 ;
-1 x61 -1 x87 -1 x62 -1 x88 >= -3 ;
+1 x63 +1 x79 +1 x64 +1 x80 >= 1 ;
-1 x63 -1 x79 +1 x64 +1 x80 >= -1 ;
+1 x63 +1 x79 -1 x64 -1 x80 >= -1 ;
-1 x63 -1 x79 -1 x64 -1 x80 >= -3 ;
+1 x63 +1 x87 +1 x64 +1 x88 >= 1 ;
-1 x63 -1 x87 +1 x64 +1 x88 >= -1 ;
+1 x63 +1 x87 -1 x64 -1 x88 >= -1 ;
-1 x63 -1 x87 -1 x64 -1 x88 >= -3 ;
+1 x65 +1 x83 +1 x66 +1 x84 >= 1 ;
-1 x65 -1 x83 +1 x66 +1 x84 >= -1 ;
+1 x65 +1 x83 -1 x66 -1 x84 >= -1 ;
-1 x65 -1 x83 -1 x66 -1 x84 >= -3 ;
+1 x65 +1 x85 +1 x66 +1 x86 >= 1 ;
-1 x65 -1 x85 +1 x66 +1 x86 >= -1 ;
+1 x65 +1 x85 -1 x66 -1 x86 >= -1 ;
-1 x65 -1 x85 -1 x66 -1 x86 >= -3 ;
+1 x67 +1 x91 +1 x68 +1 x92 >= 1 ;
-1 x67 -1 x91 +1 x68 +1 x92 >= -1 ;
+1 x67 +1 x91 -1 x68 -1 x92 >= -1 ;
-1 x67 -1 x91 -1 x68 -1 x92 >= -3 ;
+1 x67 +1 x95 +1 x68 +1 x96 >= 1 ;
-1 x67 -1 x95 +1 x68 +1 x96 >= -1 ;
+1 x67 +1 x95 -1 x68 -1 x96 >= -1 ;
-1 x67 -1 x95 -1 x68 -1 x96 >= -3 ;
+1 x69 +1 x89 +1 x70 +1 x90 >= 1 ;
-1 x69 -1 x89 +1 x70 +1 x90 >= -1 ;
+1 x69 +1 x89 -1 x70 -1 x90 >= -1 ;
-1 x69 -1 x89 -1 x70 -1 x90 >= -3 ;
+1 x69 +1 x93 +1 x70 +1 x94 >= 1 ;
-1 x69 -1 x93 +1 x70 +1 x94 >= -1 ;
+1 x69 +1 x93 -1 x70 -1 x94 >= -1 ;
-1 x69 -1 x93 -1 x70 -1 x94 >= -3 ;
+1 x71 +1 x91 +1 x72 +1 x92 >= 1 ;
-1 x71 -1 x91 +1 x72 +1 x92 >= -1 ;
+1 x71 +1 x91 -1 x72 -1 x92 >= -1 ;
-1 x71 -1 x91 -1 x72 -1 x92 >= -3 ;
+1 x71 +1 x99 +1 x72 +1 x100 >= 1 ;
-1 x71 -1 x99 +1 x72 +1 x100 >= -1 ;
+1 x71 +1 x99 -1 x72 -1 x100 >= -1 ;
-1 x71 -1 x99 -1 x72 -1 x100 >= -3 ;
+1 x73 +1 x89 +1 x74 +1 x90 >= 1 ;
-1 x73 -1 x89 +1 x74 +1 x90 >= -1 ;
+1 x73 +1 x89 -1 x74 -1 x90 >= -1 ;
-1 x73 -1 x89 -1 x74 -1 x90 >= -3 ;
+1 x73 +1 x97 +1 x74 +1 x98 >= 1 ;
-1 x73 -1 x97 +1 x74 +1 x98 >= -1 ;
+1 x73 +1 x97 -1 x74 -1 x98 >= -1 ;
-1 x73 -1 x97 -1 x74 -1 x98 >= -3 ;
+1 x75 +1 x95 +1 x76 +1 x96 >= 1 ;
-1 x75 -1 x95 +1 x76 +1 x96 >= -1 ;
+1 x75 +1 x95 -1 x76 -1 x96 >= -1 ;
-1 x75 -1 x95 -1 x76 -1 x96 >= -3 ;
+1 x75 +1 x103 +1 x76 +1 x104 >= 1 ;
-1 x75 -1 x103 +1 x76 +1 x104 >= -1 ;
+1 x75 +1 x103 -1 x76 -1 x104 >= -1 ;
-1 x75 -1 x103 -1 x76 -1 x104 >= -3 ;
+1 x77 +1 x93 +1 x78 +1 x94 >= 1 ;
-1 x77 -1 x93 +1 x78 +1 x94 >= -1 ;
+1 x77 +1 x93 -1 x78 -1 x94 >= -1 ;
-1 x77 -1 x93 -1 x78 -1 x94 >= -3 ;
+1 x77 +1 x101 +1 x78 +1 x102 >= 1 ;
-1 x77 -1 x101 +1 x78 +1 x102 >= -1 ;
+1 x77 +1 x101 -1 x78 -1 x102 >= -1 ;
-1 x77 -1 x101 -1 x78 -1 x102 >= -3 ;
+1 x79 +1 x99 +1 x80 +1 x100 >= 1 ;
-1 x79 -1 x99 +1 x80 +1 x100 >= -1 ;
+1 x79 +1 x99 -1 x80 -1 x100 >= -1 ;
-1 x79 -1 x99 -1 x80 -1 x100 >= -3 ;
+1 x79 +1 x107 +1 x80 +1 x108 >= 1 ;
-1 x79 -1 x107 +1 x80 +1 x108 >= -1 ;
+1 x79 +1 x107 -1 x80 -1 x108 >= -1 ;
-1 x79 -1 x107 -1 x80 -1 x108 >= -3 ;
+1 x81 +1 x97 +1 x82 +1 x98 >= 1 ;
-1 x81 -1 x97 +1 x82 +1 x98 >= -1 ;
+1 x81 +1 x97 -1 x82 -1 x98 >= -1 ;
-1 x81 -1 x97 -1 x82 -1 x98 >= -3 ;
+1 x81 +1 x105 +1 x82 +1 x106 >= 1 ;
-1 x81 -1 x105 +1 x82 +1 x106 >= -1 ;
+1 x81 +1 x105 -1 x82 -1 x106 >= -1 ;
-1 x81 -1 x105 -1 x82 -1 x106 >= -3 ;
+1 x83 +1 x103 +1 x84 +1 x104 >= 1 ;
-1 x83 -1 x103 +1 x84 +1 x104 >= -1 ;
+1 x83 +1 x103 -1 x84 -1 x104 >= -1 ;
-1 x83 -1 x103 -1 x84 -1 x104 >= -3 ;
+1 x83 +1 x109 +1 x84 +1 x110 >= 1 ;
-1 x83 -1 x109 +1 x84 +1 x110 >= -1 ;
+1 x83 +1 x109 -1 x84 -1 x110 >= -1 ;
-1 x83 -1 x109 -1 x84 -1 x110 >= -3 ;
+1 x85 +1 x101 +1 x86 +1 x102 >= 1 ;
-1 x85 -1 x101 +1 x86 +1 x102 >= -1 ;
+1 x85 +1 x101 -1 x86 -1 x102 >= -1 ;
-1 x85 -1 x101 -1 x86 -1 x102 >= -3 ;
+1 x85 +1 x109 +1 x86 +1 x110 >= 1 ;
-1 x85 -1 x109 +1 x86 +1 x110 >= -1 ;
+1 x85 +1 x109 -1 x86 -1 x110 >= -1 ;
-1 x85 -1 x109 -1 x86 -1 x110 >= -3 ;
+1 x87 +1 x105 +1 x88 +1 x106 >= 1 ;
-1 x87 -1 x105 +1 x88 +1 x106 >= -1 ;
+1 x87 +1 x105 -1 x88 -1 x106 >= -1 ;
-1 x87 -1 x105 -1 x88 -1 x106 >= -3 ;
+1 x87 +1 x107 +1 x88 +1 x108 >= 1 ;
-1 x87 -1 x107 +1 x88 +1 x108 >= -1 ;
+1 x87 +1 x107 -1 x88 -1 x108 >= -1 ;
-1 x87 -1 x107 -1 x88 -1 x108 >= -3 ;
+1 x89 +1 x111 +1 x90 +1 x112 >= 1 ;
-1 x89 -1 x111 +1 x90 +1 x112 >= -1 ;
+1 x89 +1 x111 -1 x90 -1 x112 >= -1 ;
-1 x89 -1 x111 -1 x90 -1 x112 >= -3 ;
+1 x91 +1 x111 +1 x92 +1 x112 >= 1 ;
-1 x91 -1 x111 +1 x92 +1 x112 >= -1 ;
+1 x91 +1 x111 -1 x92 -1 x112 >= -1 ;
-1 x91 -1 x111 -1 x92 -1 x112 >= -3 ;
+1 x93 +1 x111 +1 x94 +1 x112 >= 1 ;
-1 x93 -1 x111 +1 x94 +1 x112 >= -1 ;
+1 x93 +1 x111 -1 x94 -1 x112 >= -1 ;
-1 x93 -1 x111 -1 x94 -1 x112 >= -3 ;
+1 x95 +1 x111 +1 x96 +1 x112 >= 1 ;
-1 x95 -1 x111 +1 x96 +1 x112 >= -1 ;
+1 x95 +1 x111 -1 x96 -1 x112 >= -1 ;
-1 x95 -1 x111 -1 x96 -1 x112 >= -3 ;
+1 x97 +1 x111 +1 x98 +1 x112 >= 1 ;
-1 x97 -1 x111 +1 x98 +1 x112 >= -1 ;
+1 x97 +1 x111 -1 x98 -1 x112 >= -1 ;
-1 x97 -1 x111 -1 x98 -1 x112 >= -3 ;
+1 x99 +1 x111 +1 x100 +1 x112 >= 1 ;
-1 x99 -1 x111 +1 x100 +1 x112 >= -1 ;
+1 x99 +1 x111 -1 x100 -1 x112 >= -1 ;
-1 x99 -1 x111 -1 x100 -1 x112 >= -3 ;
+1 x101 +1 x111 +1 x102 +1 x112 >= 1 ;
-1 x101 -1 x111 +1 x102 +1 x112 >= -1 ;
+1 x101 +1 x111 -1 x102 -1 x112 >= -1 ;
-1 x101 -1 x111 -1 x102 -1 x112 >= -3 ;
+1 x103 +1 x111 +1 x104 +1 x112 >= 1 ;
-1 x103 -1 x111 +1 x104 +1 x112 >= -1 ;
+1 x103 +1 x111 -1 x104 -1 x112 >= -1 ;
-1 x103 -1 x111 -1 x104 -1 x112 >= -3 ;
+1 x105 +1 x111 +1 x106 +1 x112 >= 1 ;
-1 x105 -1 x111 +1 x106 +1 x112 >= -1 ;
+1 x105 +1 x111 -1 x106 -1 x112 >= -1 ;
-1 x105 -1 x111 -1 x106 -1 x112 >= -3 ;
+1 x107 +1 x111 +1 x108 +1 x112 >= 1 ;
-1 x107 -1 x111 +1 x108 +1 x112 >= -1 ;
+1 x107 +1 x111 -1 x108 -1 x112 >= -1 ;
-1 x107 -1 x111 -1 x108 -1 x112 >= -3 ;
+1 x109 +1 x111 +1 x110 +1 x112 >= 1 ;
-1 x109 -1 x111 +1 x110 +1 x112 >= -1 ;
+1 x109 +1 x111 -1 x110 -1 x112 >= -1 ;
-1 x109 -1 x111 -1 x110 -1 x112 >= -3 ;
-2 x1 -4 x2 -3 x3 -6 x4 -2 x5 -4 x6 -3 x7 -6 x8 -4 x9 -8 x10 -4 x11 -8 x12 -3 x13 -6 x14 -1 x15 -2 x16 -3 x17 -6 x18 -3 x19 -6 x20 -1 x21 -2 x22 -2 x23 -4 x24 -3 x25 -6 x26 -3 x27 -6 x28 -2 x29 -4 x30 -1 x31 -2 x32 -1 x33 -2 x34 -1 x35 -2 x36 -2 x37 -4 x38 -3 x39 -6 x40 -4 x41 -8 x42 -4 x43 -8 x44 -3 x45 -6 x46 -2 x47 -4 x48 -2 x49 -4 x50 -3 x51 -6 x52 -3 x53 -6 x54 -4 x55 -8 x56 -4 x57 -8 x58 -1 x59 -2 x60 -1 x61 -2 x62 -1 x63 -2 x64 -4 x65 -8 x66 -4 x67 -8 x68 -4 x69 -8 x70 -1 x71 -2 x72 -1 x73 -2 x74 -1 x75 -2 x76 -4 x77 -8 x78 -4 x79 -8 x80 -1 x81 -2 x82 -3 x83 -6 x84 -3 x85 -6 x86 -3 x87 -6 x88 -3 x89 -6 x90 -2 x91 -4 x92 -1 x93 -2 x94 -4 x95 -8 x96 -3 x97 -6 x98 -4 x99 -8 x100 -4 x101 -8 x102 -2 x103 -4 x104 -4 x105 -8 x106 -3 x107 -6 x108 -1 x109 -2 x110 -4 x111 -8 x112 >= -83 ;
